Minimize
 obj: 0 X_0_1
Subject To
 out_0:
  + 1 X_0_1 + 1 X_0_2 + 1 X_0_3 + 1 X_0_4 + 1 X_0_5 + 1 X_0_6 + 1 X_0_7 + 1 X_0_8
  + 1 X_0_9
  = 1
 in_0:
  + 1 X_1_0 + 1 X_2_0 + 1 X_3_0 + 1 X_4_0 + 1 X_5_0 + 1 X_6_0 + 1 X_7_0 + 1 X_8_0
  + 1 X_9_0
  = 1
 out_1:
  + 1 X_1_0 + 1 X_1_2 + 1 X_1_3 + 1 X_1_4 + 1 X_1_5 + 1 X_1_6 + 1 X_1_7 + 1 X_1_8
  + 1 X_1_9
  = 1
 in_1:
  + 1 X_0_1 + 1 X_2_1 + 1 X_3_1 + 1 X_4_1 + 1 X_5_1 + 1 X_6_1 + 1 X_7_1 + 1 X_8_1
  + 1 X_9_1
  = 1
 out_2:
  + 1 X_2_0 + 1 X_2_1 + 1 X_2_3 + 1 X_2_4 + 1 X_2_5 + 1 X_2_6 + 1 X_2_7 + 1 X_2_8
  + 1 X_2_9
  = 1
 in_2:
  + 1 X_0_2 + 1 X_1_2 + 1 X_3_2 + 1 X_4_2 + 1 X_5_2 + 1 X_6_2 + 1 X_7_2 + 1 X_8_2
  + 1 X_9_2
  = 1
 out_3:
  + 1 X_3_0 + 1 X_3_1 + 1 X_3_2 + 1 X_3_4 + 1 X_3_5 + 1 X_3_6 + 1 X_3_7 + 1 X_3_8
  + 1 X_3_9
  = 1
 in_3:
  + 1 X_0_3 + 1 X_1_3 + 1 X_2_3 + 1 X_4_3 + 1 X_5_3 + 1 X_6_3 + 1 X_7_3 + 1 X_8_3
  + 1 X_9_3
  = 1
 out_4:
  + 1 X_4_0 + 1 X_4_1 + 1 X_4_2 + 1 X_4_3 + 1 X_4_5 + 1 X_4_6 + 1 X_4_7 + 1 X_4_8
  + 1 X_4_9
  = 1
 in_4:
  + 1 X_0_4 + 1 X_1_4 + 1 X_2_4 + 1 X_3_4 + 1 X_5_4 + 1 X_6_4 + 1 X_7_4 + 1 X_8_4
  + 1 X_9_4
  = 1
 out_5:
  + 1 X_5_0 + 1 X_5_1 + 1 X_5_2 + 1 X_5_3 + 1 X_5_4 + 1 X_5_6 + 1 X_5_7 + 1 X_5_8
  + 1 X_5_9
  = 1
 in_5:
  + 1 X_0_5 + 1 X_1_5 + 1 X_2_5 + 1 X_3_5 + 1 X_4_5 + 1 X_6_5 + 1 X_7_5 + 1 X_8_5
  + 1 X_9_5
  = 1
 out_6:
  + 1 X_6_0 + 1 X_6_1 + 1 X_6_2 + 1 X_6_3 + 1 X_6_4 + 1 X_6_5 + 1 X_6_7 + 1 X_6_8
  + 1 X_6_9
  = 1
 in_6:
  + 1 X_0_6 + 1 X_1_6 + 1 X_2_6 + 1 X_3_6 + 1 X_4_6 + 1 X_5_6 + 1 X_7_6 + 1 X_8_6
  + 1 X_9_6
  = 1
 out_7:
  + 1 X_7_0 + 1 X_7_1 + 1 X_7_2 + 1 X_7_3 + 1 X_7_4 + 1 X_7_5 + 1 X_7_6 + 1 X_7_8
  + 1 X_7_9
  = 1
 in_7:
  + 1 X_0_7 + 1 X_1_7 + 1 X_2_7 + 1 X_3_7 + 1 X_4_7 + 1 X_5_7 + 1 X_6_7 + 1 X_8_7
  + 1 X_9_7
  = 1
 out_8:
  + 1 X_8_0 + 1 X_8_1 + 1 X_8_2 + 1 X_8_3 + 1 X_8_4 + 1 X_8_5 + 1 X_8_6 + 1 X_8_7
  + 1 X_8_9
  = 1
 in_8:
  + 1 X_0_8 + 1 X_1_8 + 1 X_2_8 + 1 X_3_8 + 1 X_4_8 + 1 X_5_8 + 1 X_6_8 + 1 X_7_8
  + 1 X_9_8
  = 1
 out_9:
  + 1 X_9_0 + 1 X_9_1 + 1 X_9_2 + 1 X_9_3 + 1 X_9_4 + 1 X_9_5 + 1 X_9_6 + 1 X_9_7
  + 1 X_9_8
  = 1
 in_9:
  + 1 X_0_9 + 1 X_1_9 + 1 X_2_9 + 1 X_3_9 + 1 X_4_9 + 1 X_5_9 + 1 X_6_9 + 1 X_7_9
  + 1 X_8_9
  = 1
 mtz_1_2:
  + 1 U1 - 1 U2 + 9 X_1_2
  <= 8
 mtz_1_3:
  + 1 U1 - 1 U3 + 9 X_1_3
  <= 8
 mtz_1_4:
  + 1 U1 - 1 U4 + 9 X_1_4
  <= 8
 mtz_1_5:
  + 1 U1 - 1 U5 + 9 X_1_5
  <= 8
 mtz_1_6:
  + 1 U1 - 1 U6 + 9 X_1_6
  <= 8
 mtz_1_7:
  + 1 U1 - 1 U7 + 9 X_1_7
  <= 8
 mtz_1_8:
  + 1 U1 - 1 U8 + 9 X_1_8
  <= 8
 mtz_1_9:
  + 1 U1 - 1 U9 + 9 X_1_9
  <= 8
 mtz_2_1:
  + 1 U2 - 1 U1 + 9 X_2_1
  <= 8
 mtz_2_3:
  + 1 U2 - 1 U3 + 9 X_2_3
  <= 8
 mtz_2_4:
  + 1 U2 - 1 U4 + 9 X_2_4
  <= 8
 mtz_2_5:
  + 1 U2 - 1 U5 + 9 X_2_5
  <= 8
 mtz_2_6:
  + 1 U2 - 1 U6 + 9 X_2_6
  <= 8
 mtz_2_7:
  + 1 U2 - 1 U7 + 9 X_2_7
  <= 8
 mtz_2_8:
  + 1 U2 - 1 U8 + 9 X_2_8
  <= 8
 mtz_2_9:
  + 1 U2 - 1 U9 + 9 X_2_9
  <= 8
 mtz_3_1:
  + 1 U3 - 1 U1 + 9 X_3_1
  <= 8
 mtz_3_2:
  + 1 U3 - 1 U2 + 9 X_3_2
  <= 8
 mtz_3_4:
  + 1 U3 - 1 U4 + 9 X_3_4
  <= 8
 mtz_3_5:
  + 1 U3 - 1 U5 + 9 X_3_5
  <= 8
 mtz_3_6:
  + 1 U3 - 1 U6 + 9 X_3_6
  <= 8
 mtz_3_7:
  + 1 U3 - 1 U7 + 9 X_3_7
  <= 8
 mtz_3_8:
  + 1 U3 - 1 U8 + 9 X_3_8
  <= 8
 mtz_3_9:
  + 1 U3 - 1 U9 + 9 X_3_9
  <= 8
 mtz_4_1:
  + 1 U4 - 1 U1 + 9 X_4_1
  <= 8
 mtz_4_2:
  + 1 U4 - 1 U2 + 9 X_4_2
  <= 8
 mtz_4_3:
  + 1 U4 - 1 U3 + 9 X_4_3
  <= 8
 mtz_4_5:
  + 1 U4 - 1 U5 + 9 X_4_5
  <= 8
 mtz_4_6:
  + 1 U4 - 1 U6 + 9 X_4_6
  <= 8
 mtz_4_7:
  + 1 U4 - 1 U7 + 9 X_4_7
  <= 8
 mtz_4_8:
  + 1 U4 - 1 U8 + 9 X_4_8
  <= 8
 mtz_4_9:
  + 1 U4 - 1 U9 + 9 X_4_9
  <= 8
 mtz_5_1:
  + 1 U5 - 1 U1 + 9 X_5_1
  <= 8
 mtz_5_2:
  + 1 U5 - 1 U2 + 9 X_5_2
  <= 8
 mtz_5_3:
  + 1 U5 - 1 U3 + 9 X_5_3
  <= 8
 mtz_5_4:
  + 1 U5 - 1 U4 + 9 X_5_4
  <= 8
 mtz_5_6:
  + 1 U5 - 1 U6 + 9 X_5_6
  <= 8
 mtz_5_7:
  + 1 U5 - 1 U7 + 9 X_5_7
  <= 8
 mtz_5_8:
  + 1 U5 - 1 U8 + 9 X_5_8
  <= 8
 mtz_5_9:
  + 1 U5 - 1 U9 + 9 X_5_9
  <= 8
 mtz_6_1:
  + 1 U6 - 1 U1 + 9 X_6_1
  <= 8
 mtz_6_2:
  + 1 U6 - 1 U2 + 9 X_6_2
  <= 8
 mtz_6_3:
  + 1 U6 - 1 U3 + 9 X_6_3
  <= 8
 mtz_6_4:
  + 1 U6 - 1 U4 + 9 X_6_4
  <= 8
 mtz_6_5:
  + 1 U6 - 1 U5 + 9 X_6_5
  <= 8
 mtz_6_7:
  + 1 U6 - 1 U7 + 9 X_6_7
  <= 8
 mtz_6_8:
  + 1 U6 - 1 U8 + 9 X_6_8
  <= 8
 mtz_6_9:
  + 1 U6 - 1 U9 + 9 X_6_9
  <= 8
 mtz_7_1:
  + 1 U7 - 1 U1 + 9 X_7_1
  <= 8
 mtz_7_2:
  + 1 U7 - 1 U2 + 9 X_7_2
  <= 8
 mtz_7_3:
  + 1 U7 - 1 U3 + 9 X_7_3
  <= 8
 mtz_7_4:
  + 1 U7 - 1 U4 + 9 X_7_4
  <= 8
 mtz_7_5:
  + 1 U7 - 1 U5 + 9 X_7_5
  <= 8
 mtz_7_6:
  + 1 U7 - 1 U6 + 9 X_7_6
  <= 8
 mtz_7_8:
  + 1 U7 - 1 U8 + 9 X_7_8
  <= 8
 mtz_7_9:
  + 1 U7 - 1 U9 + 9 X_7_9
  <= 8
 mtz_8_1:
  + 1 U8 - 1 U1 + 9 X_8_1
  <= 8
 mtz_8_2:
  + 1 U8 - 1 U2 + 9 X_8_2
  <= 8
 mtz_8_3:
  + 1 U8 - 1 U3 + 9 X_8_3
  <= 8
 mtz_8_4:
  + 1 U8 - 1 U4 + 9 X_8_4
  <= 8
 mtz_8_5:
  + 1 U8 - 1 U5 + 9 X_8_5
  <= 8
 mtz_8_6:
  + 1 U8 - 1 U6 + 9 X_8_6
  <= 8
 mtz_8_7:
  + 1 U8 - 1 U7 + 9 X_8_7
  <= 8
 mtz_8_9:
  + 1 U8 - 1 U9 + 9 X_8_9
  <= 8
 mtz_9_1:
  + 1 U9 - 1 U1 + 9 X_9_1
  <= 8
 mtz_9_2:
  + 1 U9 - 1 U2 + 9 X_9_2
  <= 8
 mtz_9_3:
  + 1 U9 - 1 U3 + 9 X_9_3
  <= 8
 mtz_9_4:
  + 1 U9 - 1 U4 + 9 X_9_4
  <= 8
 mtz_9_5:
  + 1 U9 - 1 U5 + 9 X_9_5
  <= 8
 mtz_9_6:
  + 1 U9 - 1 U6 + 9 X_9_6
  <= 8
 mtz_9_7:
  + 1 U9 - 1 U7 + 9 X_9_7
  <= 8
 mtz_9_8:
  + 1 U9 - 1 U8 + 9 X_9_8
  <= 8
 obj1:
  + 420 X_0_1 + 776 X_0_2 + 660 X_0_3 + 445 X_0_4 + 481 X_0_5 + 766 X_0_6 + 388 X_0_7 + 222 X_0_8
  + 305 X_0_9 + 420 X_1_0 + 381 X_1_2 + 247 X_1_3 + 168 X_1_4 + 489 X_1_5 + 470 X_1_6 + 709 X_1_7
  + 417 X_1_8 + 179 X_1_9 + 776 X_2_0 + 381 X_2_1 + 276 X_2_3 + 491 X_2_4 + 833 X_2_5 + 608 X_2_6
  + 1090 X_2_7 + 799 X_2_8 + 559 X_2_9 + 660 X_3_0 + 247 X_3_1 + 276 X_3_2 + 261 X_3_4 + 583 X_3_5
  + 340 X_3_6 + 902 X_3_7 + 611 X_3_8 + 376 X_3_9 + 445 X_4_0 + 168 X_4_1 + 491 X_4_2 + 261 X_4_3
  + 342 X_4_5 + 337 X_4_6 + 641 X_4_7 + 354 X_4_8 + 140 X_4_9 + 481 X_5_0 + 489 X_5_1 + 833 X_5_2
  + 583 X_5_3 + 342 X_5_4 + 445 X_5_6 + 424 X_5_7 + 263 X_5_8 + 332 X_5_9 + 766 X_6_0 + 470 X_6_1
  + 608 X_6_2 + 340 X_6_3 + 337 X_6_4 + 445 X_6_5 + 858 X_6_7 + 617 X_6_8 + 468 X_6_9 + 388 X_7_0
  + 709 X_7_1 + 1090 X_7_2 + 902 X_7_3 + 641 X_7_4 + 424 X_7_5 + 858 X_7_6 + 293 X_7_8 + 535 X_7_9
  + 222 X_8_0 + 417 X_8_1 + 799 X_8_2 + 611 X_8_3 + 354 X_8_4 + 263 X_8_5 + 617 X_8_6 + 293 X_8_7
  + 242 X_8_9 + 305 X_9_0 + 179 X_9_1 + 559 X_9_2 + 376 X_9_3 + 140 X_9_4 + 332 X_9_5 + 468 X_9_6
  + 535 X_9_7 + 242 X_9_8
  <= 1
 obj2:
  + 856 X_0_1 + 441 X_0_2 + 814 X_0_3 + 636 X_0_4 + 139 X_0_5 + 448 X_0_6 + 299 X_0_7 + 778 X_0_8
  + 974 X_0_9 + 856 X_1_0 + 441 X_1_2 + 263 X_1_3 + 774 X_1_4 + 795 X_1_5 + 709 X_1_6 + 566 X_1_7
  + 516 X_1_8 + 164 X_1_9 + 441 X_2_0 + 441 X_2_1 + 498 X_2_3 + 460 X_2_4 + 423 X_2_5 + 317 X_2_6
  + 212 X_2_7 + 407 X_2_8 + 538 X_2_9 + 814 X_3_0 + 263 X_3_1 + 498 X_3_2 + 926 X_3_4 + 716 X_3_5
  + 812 X_3_6 + 518 X_3_7 + 728 X_3_8 + 420 X_3_9 + 636 X_4_0 + 774 X_4_1 + 460 X_4_2 + 926 X_4_3
  + 715 X_4_5 + 192 X_4_6 + 612 X_4_7 + 324 X_4_8 + 780 X_4_9 + 139 X_5_0 + 795 X_5_1 + 423 X_5_2
  + 716 X_5_3 + 715 X_5_4 + 523 X_5_6 + 231 X_5_7 + 804 X_5_8 + 928 X_5_9 + 448 X_6_0 + 709 X_6_1
  + 317 X_6_2 + 812 X_6_3 + 192 X_6_4 + 523 X_6_5 + 431 X_6_7 + 384 X_6_8 + 755 X_6_9 + 299 X_7_0
  + 566 X_7_1 + 212 X_7_2 + 518 X_7_3 + 612 X_7_4 + 231 X_7_5 + 431 X_7_6 + 618 X_7_8 + 696 X_7_9
  + 778 X_8_0 + 516 X_8_1 + 407 X_8_2 + 728 X_8_3 + 324 X_8_4 + 804 X_8_5 + 384 X_8_6 + 618 X_8_7
  + 480 X_8_9 + 974 X_9_0 + 164 X_9_1 + 538 X_9_2 + 420 X_9_3 + 780 X_9_4 + 928 X_9_5 + 755 X_9_6
  + 696 X_9_7 + 480 X_9_8
  <= 2
 obj3:
  + 619 X_0_1 + 711 X_0_2 + 414 X_0_3 + 206 X_0_4 + 394 X_0_5 + 758 X_0_6 + 815 X_0_7 + 474 X_0_8
  + 547 X_0_9 + 619 X_1_0 + 167 X_1_2 + 628 X_1_3 + 441 X_1_4 + 234 X_1_5 + 205 X_1_6 + 223 X_1_7
  + 272 X_1_8 + 615 X_1_9 + 711 X_2_0 + 167 X_2_1 + 616 X_2_3 + 560 X_2_4 + 320 X_2_5 + 318 X_2_6
  + 294 X_2_7 + 268 X_2_8 + 563 X_2_9 + 414 X_3_0 + 628 X_3_1 + 616 X_3_2 + 484 X_3_4 + 431 X_3_5
  + 827 X_3_6 + 851 X_3_7 + 359 X_3_8 + 151 X_3_9 + 206 X_4_0 + 441 X_4_1 + 560 X_4_2 + 484 X_4_3
  + 245 X_4_5 + 558 X_4_6 + 619 X_4_7 + 375 X_4_8 + 580 X_4_9 + 394 X_5_0 + 234 X_5_1 + 320 X_5_2
  + 431 X_5_3 + 245 X_5_4 + 410 X_5_6 + 449 X_5_7 + 153 X_5_8 + 463 X_5_9 + 758 X_6_0 + 205 X_6_1
  + 318 X_6_2 + 827 X_6_3 + 558 X_6_4 + 410 X_6_5 + 77 X_6_7 + 477 X_6_8 + 820 X_6_9 + 815 X_7_0
  + 223 X_7_1 + 294 X_7_2 + 851 X_7_3 + 619 X_7_4 + 449 X_7_5 + 77 X_7_6 + 493 X_7_8 + 830 X_7_9
  + 474 X_8_0 + 272 X_8_1 + 268 X_8_2 + 359 X_8_3 + 375 X_8_4 + 153 X_8_5 + 477 X_8_6 + 493 X_8_7
  + 345 X_8_9 + 547 X_9_0 + 615 X_9_1 + 563 X_9_2 + 151 X_9_3 + 580 X_9_4 + 463 X_9_5 + 820 X_9_6
  + 830 X_9_7 + 345 X_9_8
  <= 3
 obj4:
  + 838 X_0_1 + 770 X_0_2 + 545 X_0_3 + 966 X_0_4 + 1015 X_0_5 + 720 X_0_6 + 703 X_0_7 + 655 X_0_8
  + 1072 X_0_9 + 838 X_1_0 + 68 X_1_2 + 399 X_1_3 + 510 X_1_4 + 451 X_1_5 + 1083 X_1_6 + 512 X_1_7
  + 192 X_1_8 + 858 X_1_9 + 770 X_2_0 + 68 X_2_1 + 338 X_2_3 + 503 X_2_4 + 459 X_2_5 + 1027 X_2_6
  + 470 X_2_7 + 132 X_2_8 + 838 X_2_9 + 545 X_3_0 + 399 X_3_1 + 338 X_3_2 + 434 X_3_4 + 471 X_3_5
  + 692 X_3_6 + 221 X_3_7 + 308 X_3_8 + 647 X_3_9 + 966 X_4_0 + 510 X_4_1 + 503 X_4_2 + 434 X_4_3
  + 112 X_4_5 + 819 X_4_6 + 275 X_4_7 + 588 X_4_8 + 364 X_4_9 + 1015 X_5_0 + 451 X_5_1 + 459 X_5_2
  + 471 X_5_3 + 112 X_5_4 + 925 X_5_6 + 355 X_5_7 + 562 X_5_8 + 465 X_5_9 + 720 X_6_0 + 1083 X_6_1
  + 1027 X_6_2 + 692 X_6_3 + 819 X_6_4 + 925 X_6_5 + 604 X_6_7 + 994 X_6_8 + 648 X_6_9 + 703 X_7_0
  + 512 X_7_1 + 470 X_7_2 + 221 X_7_3 + 275 X_7_4 + 355 X_7_5 + 604 X_7_6 + 491 X_7_8 + 425 X_7_9
  + 655 X_8_0 + 192 X_8_1 + 132 X_8_2 + 308 X_8_3 + 588 X_8_4 + 562 X_8_5 + 994 X_8_6 + 491 X_8_7
  + 894 X_8_9 + 1072 X_9_0 + 858 X_9_1 + 838 X_9_2 + 647 X_9_3 + 364 X_9_4 + 465 X_9_5 + 648 X_9_6
  + 425 X_9_7 + 894 X_9_8
  <= 4
Bounds
 1 <= U1 <= 9
 1 <= U2 <= 9
 1 <= U3 <= 9
 1 <= U4 <= 9
 1 <= U5 <= 9
 1 <= U6 <= 9
 1 <= U7 <= 9
 1 <= U8 <= 9
 1 <= U9 <= 9
Binary
 X_0_1
 X_0_2
 X_0_3
 X_0_4
 X_0_5
 X_0_6
 X_0_7
 X_0_8
 X_0_9
 X_1_0
 X_1_2
 X_1_3
 X_1_4
 X_1_5
 X_1_6
 X_1_7
 X_1_8
 X_1_9
 X_2_0
 X_2_1
 X_2_3
 X_2_4
 X_2_5
 X_2_6
 X_2_7
 X_2_8
 X_2_9
 X_3_0
 X_3_1
 X_3_2
 X_3_4
 X_3_5
 X_3_6
 X_3_7
 X_3_8
 X_3_9
 X_4_0
 X_4_1
 X_4_2
 X_4_3
 X_4_5
 X_4_6
 X_4_7
 X_4_8
 X_4_9
 X_5_0
 X_5_1
 X_5_2
 X_5_3
 X_5_4
 X_5_6
 X_5_7
 X_5_8
 X_5_9
 X_6_0
 X_6_1
 X_6_2
 X_6_3
 X_6_4
 X_6_5
 X_6_7
 X_6_8
 X_6_9
 X_7_0
 X_7_1
 X_7_2
 X_7_3
 X_7_4
 X_7_5
 X_7_6
 X_7_8
 X_7_9
 X_8_0
 X_8_1
 X_8_2
 X_8_3
 X_8_4
 X_8_5
 X_8_6
 X_8_7
 X_8_9
 X_9_0
 X_9_1
 X_9_2
 X_9_3
 X_9_4
 X_9_5
 X_9_6
 X_9_7
 X_9_8
End
